% File represents an instance of a Composite Structure problem to be solved by a CP framework
% Created on 2025-03-26 10:42:03.603
T = 50;
n = 36;
m = 60;
edges = [(2, 1),
(8, 7),
(13, 14),
(19, 20),
(25, 26),
(31, 32),
(2, 3),
(8, 9),
(14, 15),
(20, 21),
(26, 27),
(32, 33),
(4, 3),
(9, 10),
(15, 16),
(21, 22),
(27, 28),
(33, 34),
(4, 5),
(10, 11),
(16, 17),
(22, 23),
(28, 29),
(34, 35),
(5, 6),
(11, 12),
(17, 18),
(23, 24),
(29, 30),
(35, 36),
(7, 1),
(13, 7),
(19, 13),
(25, 19),
(31, 25),
(8, 2),
(14, 8),
(20, 14),
(26, 20),
(32, 26),
(9, 3),
(15, 9),
(21, 15),
(27, 21),
(33, 27),
(4, 10),
(16, 10),
(16, 22),
(28, 22),
(34, 28),
(5, 11),
(17, 11),
(17, 23),
(29, 23),
(35, 29),
(6, 12),
(18, 12),
(24, 18),
(30, 24),
(36, 30)];
counts = [|6, 4, 6, 4,
|6, 4, 6, 6,
|4, 2, 4, 6,
|4, 6, 4, 6,
|4, 6, 4, 4,
|4, 4, 4, 2,
|6, 10, 6, 4,
|6, 10, 6, 6,
|4, 8, 4, 6,
|2, 6, 2, 6,
|2, 6, 2, 2,
|2, 2, 2, 2,
|6, 10, 6, 10,
|6, 10, 6, 8,
|4, 10, 4, 6,
|4, 8, 4, 6,
|4, 8, 4, 2,
|4, 2, 4, 2,
|6, 16, 6, 10,
|6, 12, 6, 8,
|4, 10, 4, 8,
|4, 8, 4, 4,
|4, 6, 4, 2,
|4, 4, 4, 2,
|6, 20, 6, 12,
|6, 14, 6, 12,
|4, 12, 4, 12,
|4, 10, 4, 8,
|4, 6, 4, 6,
|4, 4, 4, 4,
|6, 24, 6, 14,
|6, 20, 6, 12,
|4, 18, 4, 12,
|4, 14, 4, 10,
|4, 12, 4, 6,
|4, 8, 4, 6|];
